50
20735

280 734
169 270
359 975
611 50
669 628
588 259
389 447
205 615
172 552
904 157
949 463
809 591
746 726
691 336
810 819
624 38
762 393
90 291
309 115
248 327
945 632
452 834
240 74
500 22
754 580
969 672
970 661
656 278
981 712
433 448
634 11
442 271
599 524
656 698
83 166
858 468
568 683
387 336
441 104
936 371
610 233
57 48
336 937
791 226
255 966
747 740
979 248
160 899
862 297
826 532
